10 6 15 4 18 14 8 0 11 9 19 16 17 12 5 2 13 7 3 1  
10 6 15 4 11 14 5 18 19 8 0 1 17 12 7 9 2 13 16 3  
10 6 15 4 18 14 11 7 8 0 12 5 9 19 2 1 17 13 16 3  
10 6 15 4 18 14 11 5 19 8 0 12 17 1 7 9 2 13 16 3  
10 6 15 4 14 11 5 18 19 8 17 12 9 13 16 0 1 7 3 2  
10 6 15 4 18 14 11 7 8 17 12 9 19 5 0 1 2 13 3 16  
10 6 15 4 18 14 7 11 8 5 17 12 9 19 2 1 0 13 16 3  
10 6 4 15 18 14 11 7 8 5 9 19 16 0 2 13 12 17 1 3  
10 6 15 4 18 14 11 5 19 8 17 12 9 13 16 0 2 1 7 3  
10 6 15 4 18 14 7 11 8 17 12 9 19 5 13 0 1 2 16 3  
10 6 15 4 14 11 5 18 19 7 8 17 12 9 1 0 2 13 16 3  
10 6 15 4 11 14 5 18 19 8 17 12 9 13 16 0 1 7 2 3  
10 6 15 4 18 14 11 7 8 5 9 19 16 0 12 2 17 1 13 3  
10 6 15 4 18 14 11 7 2 5 9 19 12 0 1 17 13 16 3 8  
10 6 15 4 18 14 11 7 2 17 1 5 9 19 12 0 13 16 3 8  
10 6 15 4 14 11 5 8 7 9 18 19 13 12 0 1 17 2 16 3  
10 6 15 4 18 14 11 7 8 5 17 12 9 19 2 13 0 1 16 3  
10 6 15 4 18 14 11 7 8 17 12 9 19 16 5 0 1 3 13 2  
10 6 15 4 18 14 11 17 8 12 5 9 19 1 0 2 13 16 7 3  
10 6 15 4 18 14 7 11 8 17 12 9 19 5 2 0 1 13 16 3  
10 6 15 4 18 8 7 11 5 9 19 2 12 0 1 17 13 16 3 14  
10 6 15 4 18 14 7 8 11 17 12 9 19 16 5 0 2 3 1 13  
10 6 15 4 18 14 11 17 8 12 5 9 19 16 0 2 13 1 7 3  
10 6 15 4 18 14 11 17 8 12 5 9 19 1 0 2 13 16 3 7  
10 6 15 4 18 14 11 7 2 17 1 5 9 19 12 0 13 16 3 8  
10 6 15 4 18 14 11 7 5 8 9 19 13 12 17 16 0 1 2 3  
10 6 15 4 14 18 11 7 8 5 9 19 16 2 0 13 12 17 1 3  
10 6 15 4 18 14 11 17 8 12 5 9 19 16 0 7 2 13 3 1  
10 6 15 4 18 14 11 7 8 17 12 9 19 16 0 5 3 1 2 13  
10 6 15 4 14 11 5 18 19 7 8 17 12 9 13 16 0 1 2 3  
10 6 15 4 18 14 11 17 8 12 5 9 19 7 0 1 2 13 16 3  
10 6 15 4 18 14 11 0 8 12 5 9 19 7 2 17 1 13 16 3  
10 6 15 4 18 14 7 11 8 5 9 19 2 12 0 17 1 13 16 3  
10 6 15 4 14 11 5 18 19 8 17 12 9 13 16 0 7 3 1 2  
10 6 15 4 18 14 11 7 8 17 12 9 19 5 13 16 0 3 1 2  
10 6 15 4 18 14 11 7 2 17 12 5 9 19 1 0 13 16 3 8  
10 6 15 4 11 14 5 18 19 8 17 12 9 13 16 0 7 2 3 1  
10 6 15 4 18 14 11 5 19 8 17 12 9 13 16 0 1 7 2 3  
10 6 15 4 18 14 11 17 8 12 5 9 19 13 16 0 3 2 1 7  
10 6 15 4 14 11 5 8 7 9 19 18 13 12 0 1 17 2 16 3  
10 6 15 4 14 11 5 18 19 8 17 12 9 13 16 0 7 3 1 2  
10 6 15 4 18 14 11 17 8 12 5 9 19 13 16 0 3 1 2 7  
10 6 15 4 18 14 11 8 17 12 5 9 19 13 16 0 1 7 2 3  
10 6 15 4 18 14 11 7 8 17 12 5 9 19 1 0 2 13 16 3  
10 6 15 4 14 11 5 18 19 8 17 12 7 9 1 0 13 2 16 3  
10 6 15 4 18 11 14 17 8 12 5 9 19 1 0 2 7 13 16 3  
10 6 15 4 14 11 5 18 19 8 17 12 9 13 16 0 7 3 1 2  
